nNurses = 70;
nHours = 35;
minHours = 8;
maxHours = 10;
maxConsec = 8;
maxPresence = 35;
demand = [16, 20, 15, 16, 13, 16, 15, 15, 16, 12, 14, 14, 15, 10, 5, 10, 12, 15, 17, 12, 9, 9, 8, 7, 12, 7, 10, 15, 12, 9, 11, 8, 13, 16, 18];
